nohup: ignoring input
original problem has 2000 variables (2000 bin, 0 int, 0 impl, 0 cont) and 5000 constraints
original problem has 2000 variables (2000 bin, 0 int, 0 impl, 0 cont) and 5000 constraints
original problem has 2000 variables (2000 bin, 0 int, 0 impl, 0 cont) and 5000 constraints
original problem has 2000 variables (2000 bin, 0 int, 0 impl, 0 cont) and 5000 constraints
original problem has 2000 variables (2000 bin, 0 int, 0 impl, 0 cont) and 5000 constraints
original problem has 2000 variables (2000 bin, 0 int, 0 impl, 0 cont) and 5000 constraints
original problem has 2000 variables (2000 bin, 0 int, 0 impl, 0 cont) and 5000 constraints
original problem has 2000 variables (2000 bin, 0 int, 0 impl, 0 cont) and 5000 constraints
original problem has 2000 variables (2000 bin, 0 int, 0 impl, 0 cont) and 5000 constraints
original problem has 2000 variables (2000 bin, 0 int, 0 impl, 0 cont) and 5000 constraints
original problem has 2000 variables (2000 bin, 0 int, 0 impl, 0 cont) and 5000 constraints
original problem has 2000 variables (2000 bin, 0 int, 0 impl, 0 cont) and 5000 constraints
original problem has 2000 variables (2000 bin, 0 int, 0 impl, 0 cont) and 5000 constraints
original problem has 2000 variables (2000 bin, 0 int, 0 impl, 0 cont) and 5000 constraints
original problem has 2000 variables (2000 bin, 0 int, 0 impl, 0 cont) and 5000 constraints
original problem has 2000 variables (2000 bin, 0 int, 0 impl, 0 cont) and 5000 constraints
original problem has 2000 variables (2000 bin, 0 int, 0 impl, 0 cont) and 5000 constraints
original problem has 2000 variables (2000 bin, 0 int, 0 impl, 0 cont) and 5000 constraints
original problem has 2000 variables (2000 bin, 0 int, 0 impl, 0 cont) and 5000 constraints
original problem has 2000 variables (2000 bin, 0 int, 0 impl, 0 cont) and 5000 constraints
original problem has 2000 variables (2000 bin, 0 int, 0 impl, 0 cont) and 5000 constraints
original problem has 2000 variables (2000 bin, 0 int, 0 impl, 0 cont) and 5000 constraints
original problem has 2000 variables (2000 bin, 0 int, 0 impl, 0 cont) and 5000 constraints
original problem has 2000 variables (2000 bin, 0 int, 0 impl, 0 cont) and 5000 constraints
original problem has 2000 variables (2000 bin, 0 int, 0 impl, 0 cont) and 5000 constraints
original problem has 2000 variables (2000 bin, 0 int, 0 impl, 0 cont) and 5000 constraints
original problem has 2000 variables (2000 bin, 0 int, 0 impl, 0 cont) and 5000 constraints
original problem has 2000 variables (2000 bin, 0 int, 0 impl, 0 cont) and 5000 constraints
original problem has 2000 variables (2000 bin, 0 int, 0 impl, 0 cont) and 5000 constraints
original problem has 2000 variables (2000 bin, 0 int, 0 impl, 0 cont) and 5000 constraints
original problem has 2000 variables (2000 bin, 0 int, 0 impl, 0 cont) and 5000 constraints
original problem has 2000 variables (2000 bin, 0 int, 0 impl, 0 cont) and 5000 constraints
original problem has 2000 variables (2000 bin, 0 int, 0 impl, 0 cont) and 5000 constraints
original problem has 2000 variables (2000 bin, 0 int, 0 impl, 0 cont) and 5000 constraints
original problem has 2000 variables (2000 bin, 0 int, 0 impl, 0 cont) and 5000 constraints
original problem has 2000 variables (2000 bin, 0 int, 0 impl, 0 cont) and 5000 constraints
original problem has 2000 variables (2000 bin, 0 int, 0 impl, 0 cont) and 5000 constraints
original problem has 2000 variables (2000 bin, 0 int, 0 impl, 0 cont) and 5000 constraints
original problem has 2000 variables (2000 bin, 0 int, 0 impl, 0 cont) and 5000 constraints
original problem has 2000 variables (2000 bin, 0 int, 0 impl, 0 cont) and 5000 constraints
original problem has 4000 variables (4000 bin, 0 int, 0 impl, 0 cont) and 10000 constraints
original problem has 4000 variables (4000 bin, 0 int, 0 impl, 0 cont) and 10000 constraints
original problem has 4000 variables (4000 bin, 0 int, 0 impl, 0 cont) and 10000 constraints
original problem has 4000 variables (4000 bin, 0 int, 0 impl, 0 cont) and 10000 constraints
original problem has 4000 variables (4000 bin, 0 int, 0 impl, 0 cont) and 10000 constraints
original problem has 4000 variables (4000 bin, 0 int, 0 impl, 0 cont) and 10000 constraints
original problem has 4000 variables (4000 bin, 0 int, 0 impl, 0 cont) and 10000 constraints
original problem has 4000 variables (4000 bin, 0 int, 0 impl, 0 cont) and 10000 constraints
original problem has 4000 variables (4000 bin, 0 int, 0 impl, 0 cont) and 10000 constraints
original problem has 4000 variables (4000 bin, 0 int, 0 impl, 0 cont) and 10000 constraints
original problem has 4000 variables (4000 bin, 0 int, 0 impl, 0 cont) and 10000 constraints
original problem has 4000 variables (4000 bin, 0 int, 0 impl, 0 cont) and 10000 constraints
original problem has 4000 variables (4000 bin, 0 int, 0 impl, 0 cont) and 10000 constraints
original problem has 4000 variables (4000 bin, 0 int, 0 impl, 0 cont) and 10000 constraints
original problem has 4000 variables (4000 bin, 0 int, 0 impl, 0 cont) and 10000 constraints
original problem has 4000 variables (4000 bin, 0 int, 0 impl, 0 cont) and 10000 constraints
original problem has 4000 variables (4000 bin, 0 int, 0 impl, 0 cont) and 10000 constraints
original problem has 4000 variables (4000 bin, 0 int, 0 impl, 0 cont) and 10000 constraints
original problem has 4000 variables (4000 bin, 0 int, 0 impl, 0 cont) and 10000 constraints
original problem has 4000 variables (4000 bin, 0 int, 0 impl, 0 cont) and 10000 constraints
original problem has 4000 variables (4000 bin, 0 int, 0 impl, 0 cont) and 10000 constraints
original problem has 4000 variables (4000 bin, 0 int, 0 impl, 0 cont) and 10000 constraints
original problem has 4000 variables (4000 bin, 0 int, 0 impl, 0 cont) and 10000 constraints
original problem has 4000 variables (4000 bin, 0 int, 0 impl, 0 cont) and 10000 constraints
original problem has 4000 variables (4000 bin, 0 int, 0 impl, 0 cont) and 10000 constraints
original problem has 4000 variables (4000 bin, 0 int, 0 impl, 0 cont) and 10000 constraints
original problem has 4000 variables (4000 bin, 0 int, 0 impl, 0 cont) and 10000 constraints
original problem has 4000 variables (4000 bin, 0 int, 0 impl, 0 cont) and 10000 constraints
original problem has 4000 variables (4000 bin, 0 int, 0 impl, 0 cont) and 10000 constraints
original problem has 4000 variables (4000 bin, 0 int, 0 impl, 0 cont) and 10000 constraints
original problem has 4000 variables (4000 bin, 0 int, 0 impl, 0 cont) and 10000 constraints
original problem has 4000 variables (4000 bin, 0 int, 0 impl, 0 cont) and 10000 constraints
original problem has 4000 variables (4000 bin, 0 int, 0 impl, 0 cont) and 10000 constraints
original problem has 4000 variables (4000 bin, 0 int, 0 impl, 0 cont) and 10000 constraints
original problem has 4000 variables (4000 bin, 0 int, 0 impl, 0 cont) and 10000 constraints
original problem has 4000 variables (4000 bin, 0 int, 0 impl, 0 cont) and 10000 constraints
original problem has 4000 variables (4000 bin, 0 int, 0 impl, 0 cont) and 10000 constraints
original problem has 4000 variables (4000 bin, 0 int, 0 impl, 0 cont) and 10000 constraints
original problem has 4000 variables (4000 bin, 0 int, 0 impl, 0 cont) and 10000 constraints
original problem has 4000 variables (4000 bin, 0 int, 0 impl, 0 cont) and 10000 constraints
original problem has 2000 variables (2000 bin, 0 int, 0 impl, 0 cont) and 5000 constraints
original problem has 2000 variables (2000 bin, 0 int, 0 impl, 0 cont) and 5000 constraints
original problem has 2000 variables (2000 bin, 0 int, 0 impl, 0 cont) and 5000 constraints
original problem has 2000 variables (2000 bin, 0 int, 0 impl, 0 cont) and 5000 constraints
original problem has 2000 variables (2000 bin, 0 int, 0 impl, 0 cont) and 5000 constraints
original problem has 2000 variables (2000 bin, 0 int, 0 impl, 0 cont) and 5000 constraints
original problem has 2000 variables (2000 bin, 0 int, 0 impl, 0 cont) and 5000 constraints
original problem has 2000 variables (2000 bin, 0 int, 0 impl, 0 cont) and 5000 constraints
original problem has 2000 variables (2000 bin, 0 int, 0 impl, 0 cont) and 5000 constraints
original problem has 2000 variables (2000 bin, 0 int, 0 impl, 0 cont) and 5000 constraints
original problem has 2000 variables (2000 bin, 0 int, 0 impl, 0 cont) and 5000 constraints
original problem has 2000 variables (2000 bin, 0 int, 0 impl, 0 cont) and 5000 constraints
original problem has 2000 variables (2000 bin, 0 int, 0 impl, 0 cont) and 5000 constraints
original problem has 2000 variables (2000 bin, 0 int, 0 impl, 0 cont) and 5000 constraints
original problem has 2000 variables (2000 bin, 0 int, 0 impl, 0 cont) and 5000 constraints
original problem has 2000 variables (2000 bin, 0 int, 0 impl, 0 cont) and 5000 constraints
original problem has 2000 variables (2000 bin, 0 int, 0 impl, 0 cont) and 5000 constraints
original problem has 2000 variables (2000 bin, 0 int, 0 impl, 0 cont) and 5000 constraints
original problem has 2000 variables (2000 bin, 0 int, 0 impl, 0 cont) and 5000 constraints
original problem has 2000 variables (2000 bin, 0 int, 0 impl, 0 cont) and 5000 constraints
original problem has 2000 variables (2000 bin, 0 int, 0 impl, 0 cont) and 5000 constraints
original problem has 2000 variables (2000 bin, 0 int, 0 impl, 0 cont) and 5000 constraints
original problem has 2000 variables (2000 bin, 0 int, 0 impl, 0 cont) and 5000 constraints
original problem has 2000 variables (2000 bin, 0 int, 0 impl, 0 cont) and 5000 constraints
original problem has 2000 variables (2000 bin, 0 int, 0 impl, 0 cont) and 5000 constraints
original problem has 2000 variables (2000 bin, 0 int, 0 impl, 0 cont) and 5000 constraints
original problem has 2000 variables (2000 bin, 0 int, 0 impl, 0 cont) and 5000 constraints
original problem has 2000 variables (2000 bin, 0 int, 0 impl, 0 cont) and 5000 constraints
original problem has 2000 variables (2000 bin, 0 int, 0 impl, 0 cont) and 5000 constraints
original problem has 2000 variables (2000 bin, 0 int, 0 impl, 0 cont) and 5000 constraints
original problem has 2000 variables (2000 bin, 0 int, 0 impl, 0 cont) and 5000 constraints
original problem has 2000 variables (2000 bin, 0 int, 0 impl, 0 cont) and 5000 constraints
original problem has 2000 variables (2000 bin, 0 int, 0 impl, 0 cont) and 5000 constraints
original problem has 2000 variables (2000 bin, 0 int, 0 impl, 0 cont) and 5000 constraints
original problem has 2000 variables (2000 bin, 0 int, 0 impl, 0 cont) and 5000 constraints
original problem has 2000 variables (2000 bin, 0 int, 0 impl, 0 cont) and 5000 constraints
original problem has 2000 variables (2000 bin, 0 int, 0 impl, 0 cont) and 5000 constraints
original problem has 2000 variables (2000 bin, 0 int, 0 impl, 0 cont) and 5000 constraints
original problem has 2000 variables (2000 bin, 0 int, 0 impl, 0 cont) and 5000 constraints
original problem has 2000 variables (2000 bin, 0 int, 0 impl, 0 cont) and 5000 constraints
original problem has 4000 variables (4000 bin, 0 int, 0 impl, 0 cont) and 10000 constraints
original problem has 4000 variables (4000 bin, 0 int, 0 impl, 0 cont) and 10000 constraints
original problem has 4000 variables (4000 bin, 0 int, 0 impl, 0 cont) and 10000 constraints
original problem has 4000 variables (4000 bin, 0 int, 0 impl, 0 cont) and 10000 constraints
original problem has 4000 variables (4000 bin, 0 int, 0 impl, 0 cont) and 10000 constraints
original problem has 4000 variables (4000 bin, 0 int, 0 impl, 0 cont) and 10000 constraints
original problem has 4000 variables (4000 bin, 0 int, 0 impl, 0 cont) and 10000 constraints
original problem has 4000 variables (4000 bin, 0 int, 0 impl, 0 cont) and 10000 constraints
original problem has 4000 variables (4000 bin, 0 int, 0 impl, 0 cont) and 10000 constraints
original problem has 4000 variables (4000 bin, 0 int, 0 impl, 0 cont) and 10000 constraints
original problem has 4000 variables (4000 bin, 0 int, 0 impl, 0 cont) and 10000 constraints
original problem has 4000 variables (4000 bin, 0 int, 0 impl, 0 cont) and 10000 constraints
original problem has 4000 variables (4000 bin, 0 int, 0 impl, 0 cont) and 10000 constraints
original problem has 4000 variables (4000 bin, 0 int, 0 impl, 0 cont) and 10000 constraints
original problem has 4000 variables (4000 bin, 0 int, 0 impl, 0 cont) and 10000 constraints
original problem has 4000 variables (4000 bin, 0 int, 0 impl, 0 cont) and 10000 constraints
original problem has 4000 variables (4000 bin, 0 int, 0 impl, 0 cont) and 10000 constraints
original problem has 4000 variables (4000 bin, 0 int, 0 impl, 0 cont) and 10000 constraints
original problem has 4000 variables (4000 bin, 0 int, 0 impl, 0 cont) and 10000 constraints
original problem has 4000 variables (4000 bin, 0 int, 0 impl, 0 cont) and 10000 constraints
original problem has 4000 variables (4000 bin, 0 int, 0 impl, 0 cont) and 10000 constraints
original problem has 4000 variables (4000 bin, 0 int, 0 impl, 0 cont) and 10000 constraints
original problem has 4000 variables (4000 bin, 0 int, 0 impl, 0 cont) and 10000 constraints
original problem has 4000 variables (4000 bin, 0 int, 0 impl, 0 cont) and 10000 constraints
original problem has 4000 variables (4000 bin, 0 int, 0 impl, 0 cont) and 10000 constraints
original problem has 4000 variables (4000 bin, 0 int, 0 impl, 0 cont) and 10000 constraints
original problem has 4000 variables (4000 bin, 0 int, 0 impl, 0 cont) and 10000 constraints
original problem has 4000 variables (4000 bin, 0 int, 0 impl, 0 cont) and 10000 constraints
original problem has 4000 variables (4000 bin, 0 int, 0 impl, 0 cont) and 10000 constraints
original problem has 4000 variables (4000 bin, 0 int, 0 impl, 0 cont) and 10000 constraints
original problem has 4000 variables (4000 bin, 0 int, 0 impl, 0 cont) and 10000 constraints
original problem has 4000 variables (4000 bin, 0 int, 0 impl, 0 cont) and 10000 constraints
original problem has 4000 variables (4000 bin, 0 int, 0 impl, 0 cont) and 10000 constraints
original problem has 4000 variables (4000 bin, 0 int, 0 impl, 0 cont) and 10000 constraints
original problem has 4000 variables (4000 bin, 0 int, 0 impl, 0 cont) and 10000 constraints
original problem has 4000 variables (4000 bin, 0 int, 0 impl, 0 cont) and 10000 constraints
original problem has 4000 variables (4000 bin, 0 int, 0 impl, 0 cont) and 10000 constraints
original problem has 4000 variables (4000 bin, 0 int, 0 impl, 0 cont) and 10000 constraints
original problem has 4000 variables (4000 bin, 0 int, 0 impl, 0 cont) and 10000 constraints
original problem has 4000 variables (4000 bin, 0 int, 0 impl, 0 cont) and 10000 constraints
original problem has 1000 variables (1000 bin, 0 int, 0 impl, 0 cont) and 4126 constraints
original problem has 1000 variables (1000 bin, 0 int, 0 impl, 0 cont) and 4123 constraints
original problem has 1000 variables (1000 bin, 0 int, 0 impl, 0 cont) and 4128 constraints
original problem has 1000 variables (1000 bin, 0 int, 0 impl, 0 cont) and 4120 constraints
original problem has 1000 variables (1000 bin, 0 int, 0 impl, 0 cont) and 4125 constraints
original problem has 1000 variables (1000 bin, 0 int, 0 impl, 0 cont) and 4119 constraints
original problem has 1000 variables (1000 bin, 0 int, 0 impl, 0 cont) and 4130 constraints
original problem has 1000 variables (1000 bin, 0 int, 0 impl, 0 cont) and 4142 constraints
original problem has 1000 variables (1000 bin, 0 int, 0 impl, 0 cont) and 4137 constraints
original problem has 1000 variables (1000 bin, 0 int, 0 impl, 0 cont) and 4134 constraints
original problem has 1000 variables (1000 bin, 0 int, 0 impl, 0 cont) and 4131 constraints
original problem has 1000 variables (1000 bin, 0 int, 0 impl, 0 cont) and 4123 constraints
original problem has 1000 variables (1000 bin, 0 int, 0 impl, 0 cont) and 4104 constraints
original problem has 1000 variables (1000 bin, 0 int, 0 impl, 0 cont) and 4147 constraints
original problem has 1000 variables (1000 bin, 0 int, 0 impl, 0 cont) and 4144 constraints
original problem has 1000 variables (1000 bin, 0 int, 0 impl, 0 cont) and 4139 constraints
original problem has 1000 variables (1000 bin, 0 int, 0 impl, 0 cont) and 4124 constraints
original problem has 1000 variables (1000 bin, 0 int, 0 impl, 0 cont) and 4120 constraints
original problem has 1000 variables (1000 bin, 0 int, 0 impl, 0 cont) and 4117 constraints
original problem has 1000 variables (1000 bin, 0 int, 0 impl, 0 cont) and 4124 constraints
original problem has 1000 variables (1000 bin, 0 int, 0 impl, 0 cont) and 4118 constraints
original problem has 1000 variables (1000 bin, 0 int, 0 impl, 0 cont) and 4136 constraints
original problem has 1000 variables (1000 bin, 0 int, 0 impl, 0 cont) and 4135 constraints
original problem has 1000 variables (1000 bin, 0 int, 0 impl, 0 cont) and 4135 constraints
original problem has 1000 variables (1000 bin, 0 int, 0 impl, 0 cont) and 4125 constraints
original problem has 1000 variables (1000 bin, 0 int, 0 impl, 0 cont) and 4118 constraints
original problem has 1000 variables (1000 bin, 0 int, 0 impl, 0 cont) and 4137 constraints
original problem has 1000 variables (1000 bin, 0 int, 0 impl, 0 cont) and 4117 constraints
original problem has 1000 variables (1000 bin, 0 int, 0 impl, 0 cont) and 4101 constraints
original problem has 1000 variables (1000 bin, 0 int, 0 impl, 0 cont) and 4144 constraints
original problem has 1000 variables (1000 bin, 0 int, 0 impl, 0 cont) and 4115 constraints
original problem has 1000 variables (1000 bin, 0 int, 0 impl, 0 cont) and 4121 constraints
original problem has 1000 variables (1000 bin, 0 int, 0 impl, 0 cont) and 4110 constraints
original problem has 1000 variables (1000 bin, 0 int, 0 impl, 0 cont) and 4124 constraints
original problem has 1000 variables (1000 bin, 0 int, 0 impl, 0 cont) and 4150 constraints
original problem has 1000 variables (1000 bin, 0 int, 0 impl, 0 cont) and 4118 constraints
original problem has 1000 variables (1000 bin, 0 int, 0 impl, 0 cont) and 4108 constraints
original problem has 1000 variables (1000 bin, 0 int, 0 impl, 0 cont) and 4116 constraints
original problem has 1000 variables (1000 bin, 0 int, 0 impl, 0 cont) and 4103 constraints
original problem has 1000 variables (1000 bin, 0 int, 0 impl, 0 cont) and 4154 constraints
original problem has 2000 variables (2000 bin, 0 int, 0 impl, 0 cont) and 8286 constraints
original problem has 2000 variables (2000 bin, 0 int, 0 impl, 0 cont) and 8270 constraints
original problem has 2000 variables (2000 bin, 0 int, 0 impl, 0 cont) and 8278 constraints
original problem has 2000 variables (2000 bin, 0 int, 0 impl, 0 cont) and 8306 constraints
original problem has 2000 variables (2000 bin, 0 int, 0 impl, 0 cont) and 8298 constraints
original problem has 2000 variables (2000 bin, 0 int, 0 impl, 0 cont) and 8287 constraints
original problem has 2000 variables (2000 bin, 0 int, 0 impl, 0 cont) and 8302 constraints
original problem has 2000 variables (2000 bin, 0 int, 0 impl, 0 cont) and 8310 constraints
original problem has 2000 variables (2000 bin, 0 int, 0 impl, 0 cont) and 8276 constraints
original problem has 2000 variables (2000 bin, 0 int, 0 impl, 0 cont) and 8298 constraints
original problem has 2000 variables (2000 bin, 0 int, 0 impl, 0 cont) and 8297 constraints
original problem has 2000 variables (2000 bin, 0 int, 0 impl, 0 cont) and 8241 constraints
original problem has 2000 variables (2000 bin, 0 int, 0 impl, 0 cont) and 8279 constraints
original problem has 2000 variables (2000 bin, 0 int, 0 impl, 0 cont) and 8313 constraints
original problem has 2000 variables (2000 bin, 0 int, 0 impl, 0 cont) and 8321 constraints
original problem has 2000 variables (2000 bin, 0 int, 0 impl, 0 cont) and 8278 constraints
original problem has 2000 variables (2000 bin, 0 int, 0 impl, 0 cont) and 8284 constraints
original problem has 2000 variables (2000 bin, 0 int, 0 impl, 0 cont) and 8265 constraints
original problem has 2000 variables (2000 bin, 0 int, 0 impl, 0 cont) and 8304 constraints
original problem has 2000 variables (2000 bin, 0 int, 0 impl, 0 cont) and 8292 constraints
original problem has 2000 variables (2000 bin, 0 int, 0 impl, 0 cont) and 8288 constraints
original problem has 2000 variables (2000 bin, 0 int, 0 impl, 0 cont) and 8297 constraints
original problem has 2000 variables (2000 bin, 0 int, 0 impl, 0 cont) and 8283 constraints
original problem has 2000 variables (2000 bin, 0 int, 0 impl, 0 cont) and 8294 constraints
original problem has 2000 variables (2000 bin, 0 int, 0 impl, 0 cont) and 8308 constraints
original problem has 2000 variables (2000 bin, 0 int, 0 impl, 0 cont) and 8302 constraints
original problem has 2000 variables (2000 bin, 0 int, 0 impl, 0 cont) and 8270 constraints
original problem has 2000 variables (2000 bin, 0 int, 0 impl, 0 cont) and 8270 constraints
original problem has 2000 variables (2000 bin, 0 int, 0 impl, 0 cont) and 8292 constraints
original problem has 2000 variables (2000 bin, 0 int, 0 impl, 0 cont) and 8296 constraints
original problem has 2000 variables (2000 bin, 0 int, 0 impl, 0 cont) and 8307 constraints
original problem has 2000 variables (2000 bin, 0 int, 0 impl, 0 cont) and 8315 constraints
original problem has 2000 variables (2000 bin, 0 int, 0 impl, 0 cont) and 8290 constraints
original problem has 2000 variables (2000 bin, 0 int, 0 impl, 0 cont) and 8272 constraints
original problem has 2000 variables (2000 bin, 0 int, 0 impl, 0 cont) and 8305 constraints
original problem has 2000 variables (2000 bin, 0 int, 0 impl, 0 cont) and 8291 constraints
original problem has 2000 variables (2000 bin, 0 int, 0 impl, 0 cont) and 8308 constraints
original problem has 2000 variables (2000 bin, 0 int, 0 impl, 0 cont) and 8315 constraints
original problem has 2000 variables (2000 bin, 0 int, 0 impl, 0 cont) and 8277 constraints
original problem has 2000 variables (2000 bin, 0 int, 0 impl, 0 cont) and 8291 constraints
original problem has 1000 variables (1000 bin, 0 int, 0 impl, 0 cont) and 4126 constraints
/home/liudefen/projects/ML4LocalBranch_extend/execute_heuristics.py:749: RuntimeWarning: invalid value encountered in double_scalars
  primal_int_reinforce_ave = primal_int_reinforces.sum() / len(
/home/liudefen/projects/ML4LocalBranch_extend/execute_heuristics.py:761: RuntimeWarning: invalid value encountered in double_scalars
  primal_gap_final_reinforce_ave = primal_gap_final_reinforces.sum() / len(
/home/liudefen/projects/ML4LocalBranch_extend/execute_heuristics.py:749: RuntimeWarning: invalid value encountered in double_scalars
  primal_int_reinforce_ave = primal_int_reinforces.sum() / len(
/home/liudefen/projects/ML4LocalBranch_extend/execute_heuristics.py:761: RuntimeWarning: invalid value encountered in double_scalars
  primal_gap_final_reinforce_ave = primal_gap_final_reinforces.sum() / len(
/home/liudefen/projects/ML4LocalBranch_extend/execute_heuristics.py:749: RuntimeWarning: invalid value encountered in double_scalars
  primal_int_reinforce_ave = primal_int_reinforces.sum() / len(
/home/liudefen/projects/ML4LocalBranch_extend/execute_heuristics.py:761: RuntimeWarning: invalid value encountered in double_scalars
  primal_gap_final_reinforce_ave = primal_gap_final_reinforces.sum() / len(
/home/liudefen/projects/ML4LocalBranch_extend/execute_heuristics.py:749: RuntimeWarning: invalid value encountered in double_scalars
  primal_int_reinforce_ave = primal_int_reinforces.sum() / len(
/home/liudefen/projects/ML4LocalBranch_extend/execute_heuristics.py:761: RuntimeWarning: invalid value encountered in double_scalars
  primal_gap_final_reinforce_ave = primal_gap_final_reinforces.sum() / len(
/home/liudefen/projects/ML4LocalBranch_extend/execute_heuristics.py:749: RuntimeWarning: invalid value encountered in double_scalars
  primal_int_reinforce_ave = primal_int_reinforces.sum() / len(
/home/liudefen/projects/ML4LocalBranch_extend/execute_heuristics.py:761: RuntimeWarning: invalid value encountered in double_scalars
  primal_gap_final_reinforce_ave = primal_gap_final_reinforces.sum() / len(
/home/liudefen/projects/ML4LocalBranch_extend/execute_heuristics.py:749: RuntimeWarning: invalid value encountered in double_scalars
  primal_int_reinforce_ave = primal_int_reinforces.sum() / len(
/home/liudefen/projects/ML4LocalBranch_extend/execute_heuristics.py:761: RuntimeWarning: invalid value encountered in double_scalars
  primal_gap_final_reinforce_ave = primal_gap_final_reinforces.sum() / len(
setcovering-small
firstsol
asymmetric
seed: 0
cpu
setcovering
firstsolSolution
scip-baseline primal integral:  14.767933823402682
scip-lb-baseline primal integral:  7.255490883379295
scip-lb-regression primal integral:  16.36875429249019
scip-lb-rl primal integral:  6.841592070012223
scip-lb-regression-rl primal integral:  16.441543206577002
rl primal integral:  nan


scip-baseline primal gap:  2.0139479070744177
scip-lb-baseline primal gap:  0.48986447734840144
scip-lb-regression primal gap:  2.0606343374612055
scip-lb-rl primal gap:  0.7073014536251135
scip-lb-regression-rl primal gap:  2.2381230856178136
rl primal gap:  nan
seed mcts:  0
setcovering-large
firstsol
asymmetric
seed: 0
cpu
setcovering
firstsolSolution
scip-baseline primal integral:  18.69478569152836
scip-lb-baseline primal integral:  12.8043914987833
scip-lb-regression primal integral:  21.892194280124578
scip-lb-rl primal integral:  11.030962027425634
scip-lb-regression-rl primal integral:  22.084383942214835
rl primal integral:  nan


scip-baseline primal gap:  1.9298365638389743
scip-lb-baseline primal gap:  0.8955526607084867
scip-lb-regression primal gap:  2.270217499214632
scip-lb-rl primal gap:  1.0618556561856416
scip-lb-regression-rl primal gap:  2.270217499214632
rl primal gap:  nan
seed mcts:  0
setcovering-small
rootsol
asymmetric
seed: 0
cpu
setcovering
rootsolSolution
scip-baseline primal integral:  14.31456623282611
scip-lb-baseline primal integral:  6.621646124287105
scip-lb-regression primal integral:  10.728850226997055
scip-lb-rl primal integral:  6.52031086990238
scip-lb-regression-rl primal integral:  13.846153090817563
rl primal integral:  nan


scip-baseline primal gap:  1.8087213039933545
scip-lb-baseline primal gap:  0.4470609794648725
scip-lb-regression primal gap:  2.061854885066322
scip-lb-rl primal gap:  1.0033570690215503
scip-lb-regression-rl primal gap:  2.011535538969634
rl primal gap:  nan
seed mcts:  0
setcovering-large
rootsol
asymmetric
seed: 0
cpu
setcovering
rootsolSolution
scip-baseline primal integral:  1.6543490786694328
scip-lb-baseline primal integral:  0.9951428752897671
scip-lb-regression primal integral:  1.537188071263061
scip-lb-rl primal integral:  0.9867862573615813
scip-lb-regression-rl primal integral:  1.5374041544722574
rl primal integral:  nan


scip-baseline primal gap:  0.9765015950321683
scip-lb-baseline primal gap:  0.37184726933234225
scip-lb-regression primal gap:  1.356857552310516
scip-lb-rl primal gap:  0.2901938894177215
scip-lb-regression-rl primal gap:  1.356857552310516
rl primal gap:  nan
seed mcts:  0
independentset-small
firstsol
symmetric
seed: 0
cpu
independentset
firstsolSolution
scip-baseline primal integral:  1.6300493843785184
scip-lb-baseline primal integral:  0.06544697841368548
scip-lb-regression primal integral:  0.22448916525101978
scip-lb-rl primal integral:  0.0918540512937462
scip-lb-regression-rl primal integral:  0.2612419653065841
rl primal integral:  nan


scip-baseline primal gap:  1.54215325627432
scip-lb-baseline primal gap:  0.043910373761998286
scip-lb-regression primal gap:  0.18187762589759807
scip-lb-rl primal gap:  0.07194421272932595
scip-lb-regression-rl primal gap:  0.2485599532168088
rl primal gap:  nan
seed mcts:  0
independentset-large
firstsol
symmetric
seed: 0
cpu
independentset
firstsolSolution
scip-baseline primal integral:  1.9061284719905984
scip-lb-baseline primal integral:  0.15410637814978595
scip-lb-regression primal integral:  0.12868641399744746
scip-lb-rl primal integral:  0.16301498752216614
scip-lb-regression-rl primal integral:  0.12718388698421465
rl primal integral:  nan


scip-baseline primal gap:  3.1058518548298353
scip-lb-baseline primal gap:  0.06847081966432145
scip-lb-regression primal gap:  0.03581556750053925
scip-lb-rl primal gap:  0.08220563370426219
scip-lb-regression-rl primal gap:  0.03589074200596244
rl primal gap:  nan
seed mcts:  0
independentset-small
rootsol
symmetric
seed: 0
cpu
Traceback (most recent call last):
  File "compute_evaluation_results_scip.py", line 101, in <module>
    run_localbranch.primal_integral_03(
  File "/home/liudefen/projects/ML4LocalBranch_extend/execute_heuristics.py", line 550, in primal_integral_03
    with gzip.open(filename, 'rb') as f:
  File "/home/liudefen/opt/python3.8.0/lib/python3.8/gzip.py", line 58, in open
    binary_file = GzipFile(filename, gz_mode, compresslevel)
  File "/home/liudefen/opt/python3.8.0/lib/python3.8/gzip.py", line 173, in __init__
    fileobj = self.myfileobj = builtins.open(filename, mode or 'rb')
FileNotFoundError: [Errno 2] No such file or directory: './result/generated_instances/independentset/-small/rootsol/scip/heuristic_mode/lb-from-rootsol-t_total60s-t_node2s-small_lb_k0_regression_beforenode/seed0/lb-test-independentset-160_transformed.pkl'
